24850
0 1 1 0 1 1 1 1 1 0 0 0 1 0 0 1 1 0 1 1 1 1 0 0 0 1 0 0 1 1 
7 19 21 18 15 12 15 28 18 28 4 28 1 1 28 18 1 20 16 28 18 16 5 2 5 18 16 19 29 15 6 19 4 16 18 6 20 8 16 16 18 8 6 29 8 19 1 21 19 19 2 16 21 16 8 6 25 4 18 25 29 2 7 8 8 25 5 19 6 25 7 12 6 8 5 1 20 5 8 16 5 5 20 25 29 8 6 2 18 7 28 6 25 25 2 1 12 6 2 28 28 15 25 7 4 2 4 16 16 1 19 4 18 12 12 8 28 7 19 8 4 25 28 19 4 16 2 12 4 2 28 21 25 20 1 20 1 8 28 20 12 16 12 25 25 2 16 15 18 25 21 28 5 28 8 6 2 15 8 1 1 18 5 21 5 18 5 4 1 21 1 20 19 20 4 2 21 20 29 20 5 21 21 19 12 8 12 5 28 21 2 21 6 4 7 12 7 15 20 19 
